3
45
26
42
14
43
15
37
17
22
32
30
31
39
38
8
26
23
1
22
13
35
30
11
45
20
31
47
33
25
8
22
43
50
1
17
16
14
7
42
20
1
49
26
16
38
38
43
6
28
49
42
34
44
36
20
30
18
45
26
13
23
28
47
48
15
14
16
27
22
40
24
15
34
35
14
19
27
17
24
14
38
15
38
35
26
6
35
51
16
22
44
28
14
38
16
2
8
46
19
